Minimize

1 x_0_0 + 50 x_0_1 + 10 x_0_2 + 15 x_0_3 + 10 x_0_4 + 4 x_1_0 + 3 x_1_1 + 3 x_1_2 + 2 x_1_3 + 1 x_1_4


Subject To

a0: x_0_0 + x_0_1 + x_0_2 + x_0_3 + x_0_4 <= 5
a1: x_1_0 + x_1_1 + x_1_2 + x_1_3 + x_1_4 <= 100
b0: x_0_0 + x_1_0 >= 6
b1: x_0_1 + x_1_1 >= 3
b2: x_0_2 + x_1_2 >= 8
b3: x_0_3 + x_1_3 >= 10
b4: x_0_4 + x_1_4 >= 5





General

 x_0_0 x_0_1 x_0_2 x_0_3 x_0_4 x_1_0 x_1_1 x_1_2 x_1_3 x_1_4



End
